<number of tasks>
50

<cycle time>
1000

<order strength>
0.199


<task times>
1 141
2 137
3 51
4 439
5 125
6 330
7 255
8 62
9 33
10 490
11 58
12 91
13 115
14 211
15 392
16 158
17 537
18 66
19 345
20 563
21 211
22 466
23 215
24 228
25 568
26 477
27 88
28 41
29 482
30 92
31 136
32 174
33 523
34 125
35 52
36 26
37 516
38 533
39 123
40 617
41 503
42 263
43 528
44 106
45 172
46 110
47 39
48 108
49 76
50 323

<precedence relations>
1,4
2,5
2,8
2,9
2,10
3,6
3,7
3,9
3,11
4,12
5,13
6,14
8,16
8,18
8,28
9,15
10,17
12,20
13,21
14,19
15,22
18,23
19,24
20,28
21,26
22,25
22,27
22,33
24,31
25,32
26,29
26,30
26,33
27,34
29,35
30,36
31,39
32,37
33,38
33,40
33,41
33,44
34,42
34,43
35,48
36,48
37,45
38,46
39,48
40,47
41,49
42,50

<end>
